<?xml version = "1.0" encoding="UTF-8" standalone="yes"?>
<CPLEXSolution version="1.2">
 <header
   problemName="ilog.cplex"
   solutionName="incumbent"
   solutionIndex="-1"
   objectiveValue="64"
   solutionTypeValue="3"
   solutionTypeString="primal"
   solutionStatusValue="107"
   solutionStatusString="time limit exceeded"
   solutionMethodString="mip"
   primalFeasible="1"
   dualFeasible="0"
   MIPNodes="226609"
   MIPIterations="1599423"
   writeLevel="3"/>
 <quality
   epInt="1.0000000000000001e-05"
   epRHS="9.9999999999999995e-07"
   maxIntInfeas="0"
   maxPrimalInfeas="0"
   maxX="16"
   maxSlack="44"/>
 <variables>
  <variable name="x_0_6_0" index="39" value="1"/>
  <variable name="x_12_0_0" index="61" value="1"/>
  <variable name="x_0_9_1" index="74" value="1"/>
  <variable name="x_16_0_1" index="97" value="1"/>
  <variable name="x_1_16_1" index="142" value="1"/>
  <variable name="x_10_1_1" index="151" value="1"/>
  <variable name="x_4_12_0" index="273" value="1"/>
  <variable name="x_6_4_0" index="279" value="1"/>
  <variable name="x_9_10_1" index="480" value="1"/>
  <variable name="y_0_0" index="579" value="1"/>
  <variable name="y_1_0" index="581" value="1"/>
  <variable name="y_2_1" index="582" value="1"/>
  <variable name="y_3_1" index="584" value="1"/>
  <variable name="y_4_1" index="586" value="1"/>
  <variable name="y_5_1" index="588" value="1"/>
  <variable name="y_6_0" index="591" value="1"/>
  <variable name="y_7_1" index="592" value="1"/>
  <variable name="y_8_1" index="594" value="1"/>
  <variable name="u_1_0" index="596" value="1"/>
  <variable name="u_2_0" index="597" value="1"/>
  <variable name="u_1_1" index="598" value="3"/>
  <variable name="u_2_1" index="599" value="1"/>
  <variable name="u_3_0" index="600" value="1"/>
  <variable name="u_3_1" index="601" value="1"/>
  <variable name="u_4_0" index="602" value="2"/>
  <variable name="u_4_1" index="603" value="1"/>
  <variable name="u_5_0" index="604" value="1"/>
  <variable name="u_5_1" index="605" value="1"/>
  <variable name="u_6_0" index="606" value="1"/>
  <variable name="u_6_1" index="607" value="1"/>
  <variable name="u_7_0" index="608" value="1"/>
  <variable name="u_7_1" index="609" value="1"/>
  <variable name="u_8_0" index="610" value="1"/>
  <variable name="u_8_1" index="611" value="1"/>
  <variable name="u_9_0" index="612" value="1"/>
  <variable name="u_9_1" index="613" value="1"/>
  <variable name="u_10_0" index="614" value="1"/>
  <variable name="u_10_1" index="615" value="2"/>
  <variable name="u_11_0" index="616" value="1"/>
  <variable name="u_11_1" index="617" value="1"/>
  <variable name="u_12_0" index="618" value="3"/>
  <variable name="u_12_1" index="619" value="1"/>
  <variable name="u_13_0" index="620" value="1"/>
  <variable name="u_13_1" index="621" value="1"/>
  <variable name="u_14_0" index="622" value="16"/>
  <variable name="u_14_1" index="623" value="1"/>
  <variable name="u_15_0" index="624" value="1"/>
  <variable name="u_15_1" index="625" value="16"/>
  <variable name="u_16_0" index="626" value="1"/>
  <variable name="u_16_1" index="627" value="4"/>
 </variables>
 <objectiveValues>
  <objective index="0" name="" value="64"/>
 </objectiveValues>
</CPLEXSolution>
